Route #1: 118 56 2 47 64 80 37 110 26
Route #2: 75 93 12 115 88 82 43
Route #3: 25 67 117 18 16 14
Route #4: 95 48 41 81 78 122
Route #5: 94 27
Route #6: 63 86 31 28 109
Route #7: 69 119 23 66 72 5 59 21
Route #8: 85 55 120 30 42 8 65 96
Route #9: 102 108 105 46
Route #10: 68 73 99 77
Route #11: 70 54 34
Route #12: 62 84 123
Route #13: 13 104
Route #14: 33 6 49
Route #15: 24 52 106 90 89 35
Route #16: 36 9
Route #17: 76 38
Route #18: 22 19
Route #19: 111 74 44
Route #20: 114 40 58
Route #21: 121 11
Route #22: 51 125 60 7 3 50
Route #23: 92 113
Route #24: 101 100 17 91
Route #25: 116 71 20 10 29 79 98
Route #26: 112 107
Route #27: 97 87
Route #28: 39 103
Route #29: 32 61
Route #30: 15 124 45 53 4
Route #31: 83 57
